MKP9 Results:
BPSO1 Results:
4685 5280 5318 5512 5512 5590 6112 6112 6112 6112 6112 6112 6112 6112 6112 6112 6112 6112 6112 6112 6637 6637 6637 6637 6637 6637 6637 6637 6637 6637 6637 6637 6637 6637 6637 6637 6637 6637 6637 6637
3896 5391 5391 5883 5883 5925 5925 5925 5991 5991 6147 6315 6315 6315 6315 6315 6315 6315 6315 6315 6315 6315 6315 6315 6315 6315 6315 6315 6315 6315 6315 6315 6315 6315 6315 6315 6315 6315 6315 6315
4268 5873 5873 6105 6564 6564 6743 6758 7104 7104 7104 7104 7104 7104 7104 7104 7104 7104 7104 7104 7104 7104 7104 7104 7104 7104 7104 7104 7104 7104 7104 7104 7104 7104 7104 7104 7104 7104 7104 7104
5002 5881 5915 6135 6189 6422 6422 6431 6431 6431 6431 6431 6431 6431 6431 6431 6431 6431 6431 6431 6431 6431 6431 6431 6431 6431 6431 6431 6431 6431 6431 6431 6431 6431 6431 6431 6431 6431 6431 6431
3924 5849 6086 6630 6630 6630 6765 6765 6978 6978 6978 6978 6978 6978 6978 6978 6978 6978 6978 6978 6978 6978 6978 6978 6978 6978 6978 6978 6978 6978 6978 6978 6978 6978 6978 6978 6978 6978 6978 6978
4418 4418 5334 5334 5654 5654 5654 5986 5986 5986 5986 5986 5986 5986 5986 5986 6279 6279 6279 6279 6279 6279 6279 6279 6279 6279 6279 6279 6279 6279 6279 6279 6279 6279 6279 6279 6279 6279 6279 6279
5106 5730 5974 5974 5974 5974 5974 5974 5974 5974 5974 5974 5974 5974 5974 6284 6331 6331 6331 6331 6331 6331 6331 6331 6331 6331 6331 6331 6331 6331 6921 6921 6921 6921 6921 6921 6921 6921 6921 6921
3560 5415 5895 5895 5895 5895 5895 6300 6300 6466 6466 6466 6466 6645 6645 6645 6645 6645 6645 6645 6645 6645 6645 6645 6645 6645 6645 6645 6645 6645 6645 6645 6645 6645 6645 6645 6645 6645 6645 6645
5728 6639 7065 7065 7065 7065 7065 7065 7065 7104 7104 7104 7104 7104 7104 7104 7104 7104 7104 7104 7104 7104 7104 7104 7104 7104 7104 7104 7104 7104 7104 7104 7104 7104 7104 7104 7104 7104 7104 7104
4679 5751 5847 5883 5883 5883 5883 5883 5883 5883 5883 5883 5883 5883 5883 5883 5883 5883 5883 5883 5883 5883 5883 5883 5883 5883 5883 5883 5883 5883 6116 6116 6116 6116 6116 6116 6116 6116 6116 6116
5126 5592 5649 6207 6413 6413 6413 6413 6413 6413 6591 6591 6591 6758 6758 6758 6758 6758 6758 6758 6758 6758 6758 6758 6758 6758 6758 6758 6758 6758 6758 6758 6758 6758 6758 6758 6758 6758 6758 6758
4896 5797 6313 6376 6433 6433 6433 6433 6464 6473 6473 6473 6473 6473 6473 6473 6473 6473 6473 6473 6473 6473 6473 6473 6473 6473 6473 6473 6473 6473 6473 6473 6473 6473 6473 6473 6473 6473 6473 6473
4889 5964 5964 6444 6684 6684 6684 6684 6684 6684 6684 6684 6684 6684 6684 6684 6684 6684 6684 6684 6684 6684 6684 6684 6684 6684 6684 6684 6684 6684 6684 6684 6684 6684 6684 6684 6684 6684 6684 6684
4078 5170 5563 5628 5795 6193 6193 6193 6193 6465 6465 6465 6465 6465 6465 6465 6465 6465 6465 6465 6465 6465 6465 6465 6465 6465 6465 6465 6465 6465 6465 6465 6465 6465 6465 6465 6465 6465 6465 6465
4214 4571 4571 5314 5314 6423 6423 6423 6423 6423 6423 6423 6423 6423 6423 6423 6423 6423 6423 6423 6423 6423 6423 6423 6423 6423 6423 6423 6423 6423 6423 6423 6423 6423 6423 6423 6423 6423 6423 6423
5240 5410 6044 6044 6665 7190 7190 7190 7190 7190 7190 7190 7190 7190 7190 7190 7190 7190 7190 7190 7190 7190 7190 7190 7190 7190 7190 7190 7190 7190 7190 7190 7190 7190 7190 7190 7190 7190 7190 7190
5500 5545 5654 6060 6060 6060 6060 6060 6060 6060 6060 6060 6060 6529 6529 6529 6529 6529 6529 6529 6529 6529 6529 6529 6529 6529 6529 6529 6529 6529 6529 6529 6529 6529 6529 6529 6529 6529 6529 6529
5535 5580 6014 6014 6014 6014 6014 6014 6591 6591 6591 6591 6591 6591 6591 6591 6591 6591 6591 6591 6591 6655 6655 6655 6655 6655 6655 6655 6655 6655 6655 6655 6655 6655 6655 6655 6655 6655 6655 6655
3983 4752 5324 5367 5367 5367 5992 5992 5992 5992 5992 5992 5992 5992 5992 5992 5992 5992 5992 5992 5992 5992 5992 5992 5992 5992 5992 5992 5992 6195 6195 6195 6195 6195 6195 6195 6195 6195 6195 6195
5121 6068 6602 6735 6735 6735 6735 6735 6735 6735 6735 6735 6735 6735 6735 6735 6735 6978 6978 6978 6978 6978 6978 6978 6978 6978 6978 6978 6978 6978 6978 6978 6978 6978 6978 6978 6978 6978 6978 6978
4486 5770 5770 5981 5981 6609 6613 6613 6613 6659 6659 6659 6659 6659 6659 6659 6659 6659 6659 6659 6659 6659 6659 6659 6659 6659 6659 6659 6659 6659 6659 6659 6659 6659 6659 6659 6659 6659 6659 6659
4556 5439 5594 5830 5862 5999 6628 6628 6628 6628 6628 6628 6628 6628 6628 6628 6628 6628 6628 6628 6628 6628 6628 6628 6628 6628 6628 6628 6628 6628 6628 6628 6628 6628 6628 6628 6628 6628 6628 6628
5098 5661 6066 6066 6564 6564 6564 6743 6743 6743 6743 6743 6743 6743 6743 6743 6743 6743 6743 6743 6743 6743 6743 6743 6743 6743 6743 6743 6743 6743 6743 6743 6743 6743 6743 6743 6743 6743 6743 6743
4114 5413 5607 6679 6679 6679 6679 6679 6679 6679 6679 6679 6679 6679 6679 6679 6679 6679 6679 6679 6679 6679 6679 6679 6679 6679 6679 6679 6679 6679 6679 6679 6679 6679 6679 6679 6679 6679 6679 6679
4569 5999 6108 6329 6390 6390 6390 6390 6390 6390 6390 6390 6390 6390 6390 6390 6390 6390 6390 6390 6390 6390 6390 6390 6390 6390 6390 6390 6390 6390 6390 6390 6390 6390 6390 6390 6390 6390 6390 6390
4832 5392 5697 5957 6321 6321 6321 6399 6399 6399 6399 6399 6399 6399 6399 6399 6399 6399 6399 6399 6399 6399 6399 6399 6399 6399 6399 6399 6399 6399 6399 6399 6399 6399 6399 6399 6399 6399 6399 6399
3744 6345 6345 6345 6518 6518 6518 6518 6518 6518 6518 6518 6518 6518 6518 6518 6518 6518 6518 6518 6518 6518 6518 6518 6518 6518 6518 6518 6518 6518 6518 6518 6518 6518 6518 6518 6518 6518 6518 6518
5089 5280 5392 5392 5552 5580 5580 6342 6342 6342 6342 6342 6342 6342 6766 6766 6766 6766 6766 6766 6766 6766 6766 6766 6766 6766 6766 6766 6766 6766 6766 6766 6766 6766 6766 6766 6766 6766 6766 6766
5454 5659 5864 6041 6041 6082 6776 6964 6964 6964 6964 6964 6964 6964 6964 6964 6964 6964 6964 6964 6964 6964 6964 6964 6964 6964 6964 6964 6964 6964 6964 6964 6964 6964 6964 6964 6964 6964 6964 6964
4088 5409 6562 6562 6562 6562 6665 6817 6817 6817 6817 6817 6817 6817 6817 6817 6817 6817 6817 6932 6932 6932 6932 6932 6932 6932 6932 6932 6932 6932 6932 6932 6932 6932 6932 6932 6932 6932 6932 6932

GA1 Results:
6369 6651 6876 7208 7378 7444 7504 7513 7563 7586 7690 7690 7711 7711 7711 7746 7746 7746 7746 7746 7746 7746 7746 7746 7772 7772 7772 7772 7772 7772 7772 7772 7772 7772 7772 7772 7772 7772 7772 7772
4448 5735 6359 7284 7284 7365 7365 7434 7462 7462 7462 7462 7513 7601 7625 7625 7625 7644 7644 7672 7672 7672 7672 7672 7672 7672 7690 7690 7690 7690 7690 7690 7690 7690 7690 7690 7690 7690 7690 7690
4065 5930 5930 6677 6950 7123 7351 7351 7351 7447 7447 7454 7500 7500 7694 7694 7694 7734 7734 7738 7738 7738 7738 7761 7761 7761 7761 7761 7761 7761 7761 7761 7761 7761 7761 7761 7761 7761 7761 7761
5074 5784 6119 6831 7027 7027 7298 7358 7468 7563 7563 7595 7603 7609 7614 7673 7673 7686 7686 7704 7704 7739 7739 7739 7739 7739 7739 7772 7772 7772 7772 7772 7772 7772 7772 7772 7772 7772 7772 7772
4428 5845 5845 7055 7055 7079 7159 7470 7470 7551 7562 7562 7651 7695 7695 7695 7695 7707 7728 7728 7728 7728 7728 7734 7734 7734 7761 7761 7761 7761 7761 7761 7761 7761 7761 7761 7761 7761 7761 7761
4941 5287 6109 7072 7072 7199 7262 7262 7372 7396 7605 7605 7605 7605 7654 7654 7705 7725 7738 7738 7738 7738 7738 7738 7738 7738 7738 7738 7738 7738 7738 7738 7738 7738 7738 7738 7738 7738 7738 7738
4898 5527 6533 6533 7075 7170 7271 7388 7545 7574 7574 7669 7669 7669 7669 7688 7734 7734 7734 7734 7761 7761 7761 7761 7761 7761 7761 7761 7761 7761 7761 7761 7761 7761 7761 7761 7761 7761 7761 7761
4095 6205 7208 7208 7312 7325 7325 7363 7442 7494 7494 7494 7624 7675 7675 7694 7699 7699 7728 7761 7761 7761 7761 7761 7761 7761 7761 7761 7761 7761 7761 7761 7761 7761 7761 7761 7761 7761 7761 7761
4410 6079 7138 7138 7138 7300 7464 7538 7538 7538 7538 7562 7563 7603 7627 7706 7706 7706 7709 7733 7758 7758 7758 7758 7758 7758 7758 7758 7758 7758 7758 7758 7758 7758 7758 7758 7758 7758 7758 7758
5051 5213 6172 6625 7468 7468 7473 7473 7494 7584 7584 7584 7665 7665 7688 7688 7725 7725 7725 7739 7739 7739 7739 7739 7739 7739 7739 7739 7739 7739 7739 7739 7739 7739 7739 7739 7739 7739 7739 7739
5360 5999 6534 6745 7239 7240 7317 7317 7488 7488 7643 7643 7649 7649 7664 7664 7690 7712 7739 7739 7741 7741 7741 7741 7741 7741 7741 7741 7741 7741 7741 7741 7741 7741 7741 7741 7741 7741 7741 7741
5472 5889 6535 6535 6646 7218 7289 7289 7289 7425 7439 7482 7540 7676 7683 7690 7723 7723 7723 7723 7723 7739 7739 7739 7739 7739 7739 7739 7739 7741 7741 7741 7741 7741 7741 7741 7741 7741 7741 7741
5040 5398 6177 6550 7072 7209 7236 7318 7329 7345 7475 7475 7475 7475 7475 7520 7586 7586 7642 7649 7677 7677 7677 7772 7772 7772 7772 7772 7772 7772 7772 7772 7772 7772 7772 7772 7772 7772 7772 7772
4517 6031 6136 6855 7057 7264 7264 7264 7446 7446 7553 7553 7575 7575 7575 7579 7579 7601 7601 7601 7630 7630 7639 7639 7639 7639 7639 7639 7639 7639 7639 7639 7639 7639 7639 7639 7639 7639 7639 7639
5181 6065 6905 6905 7321 7333 7360 7649 7649 7649 7649 7649 7649 7671 7671 7671 7694 7772 7772 7772 7772 7772 7772 7772 7772 7772 7772 7772 7772 7772 7772 7772 7772 7772 7772 7772 7772 7772 7772 7772
5889 6020 6020 7121 7121 7223 7223 7236 7367 7367 7367 7523 7634 7634 7634 7634 7696 7725 7725 7725 7725 7725 7725 7725 7725 7725 7725 7725 7725 7725 7725 7725 7725 7725 7725 7725 7725 7725 7725 7725
4066 6658 7177 7177 7212 7395 7441 7441 7441 7441 7469 7474 7486 7500 7504 7518 7518 7535 7613 7650 7650 7650 7694 7772 7772 7772 7772 7772 7772 7772 7772 7772 7772 7772 7772 7772 7772 7772 7772 7772
4184 5913 6084 7375 7375 7375 7401 7402 7429 7446 7585 7585 7585 7585 7585 7585 7585 7620 7620 7620 7665 7714 7714 7714 7734 7761 7761 7761 7761 7761 7761 7761 7761 7761 7761 7761 7761 7761 7761 7761
4358 6624 7059 7059 7177 7432 7432 7482 7482 7482 7551 7551 7551 7561 7623 7623 7647 7647 7647 7679 7699 7721 7721 7721 7758 7758 7758 7761 7761 7761 7761 7761 7761 7761 7761 7761 7761 7761 7761 7761
5377 5709 6610 6675 7129 7248 7270 7270 7412 7412 7420 7420 7420 7496 7496 7496 7496 7503 7509 7538 7538 7538 7687 7703 7703 7710 7721 7721 7728 7728 7728 7728 7728 7728 7728 7728 7728 7728 7728 7728
5095 5461 6156 6662 7328 7328 7328 7411 7411 7464 7580 7580 7624 7624 7627 7661 7661 7674 7674 7674 7703 7703 7703 7703 7703 7703 7710 7710 7710 7710 7710 7728 7728 7728 7728 7728 7728 7746 7746 7746
4018 5941 6616 6970 7153 7200 7216 7372 7404 7404 7404 7404 7429 7527 7527 7537 7561 7602 7602 7650 7655 7673 7725 7725 7725 7725 7725 7734 7761 7761 7761 7761 7761 7761 7761 7761 7761 7761 7761 7761
4507 6083 6555 6892 7380 7380 7439 7439 7489 7489 7526 7526 7526 7526 7558 7558 7592 7613 7625 7625 7635 7739 7739 7739 7739 7739 7739 7739 7739 7739 7758 7758 7758 7758 7758 7758 7758 7758 7758 7758
4432 6361 6365 6932 6940 7086 7341 7341 7341 7370 7469 7469 7657 7657 7657 7657 7657 7657 7657 7678 7725 7725 7725 7725 7734 7761 7761 7761 7761 7761 7761 7761 7761 7761 7761 7761 7761 7761 7761 7761
4390 6127 6301 6650 7047 7047 7217 7371 7430 7494 7494 7515 7590 7590 7590 7625 7640 7640 7649 7652 7657 7657 7690 7694 7711 7711 7746 7746 7746 7746 7746 7746 7746 7746 7746 7746 7746 7746 7746 7746
5431 6490 7102 7102 7212 7233 7239 7239 7393 7393 7419 7491 7491 7573 7573 7620 7622 7623 7633 7670 7670 7670 7698 7698 7705 7705 7711 7711 7711 7711 7711 7711 7711 7711 7711 7711 7711 7711 7711 7711
4185 5028 6018 6624 6624 7437 7478 7495 7495 7495 7524 7524 7565 7565 7614 7614 7614 7614 7614 7614 7614 7621 7621 7621 7621 7621 7621 7621 7621 7621 7621 7621 7621 7621 7621 7621 7621 7621 7621 7621
4740 5930 6424 6641 6699 7119 7324 7324 7371 7371 7386 7386 7447 7513 7513 7655 7655 7725 7725 7734 7734 7734 7772 7772 7772 7772 7772 7772 7772 7772 7772 7772 7772 7772 7772 7772 7772 7772 7772 7772
3445 5539 6467 6753 7126 7126 7371 7371 7454 7489 7489 7523 7552 7636 7713 7713 7719 7719 7719 7719 7728 7761 7761 7761 7761 7761 7761 7761 7761 7761 7761 7761 7761 7761 7761 7761 7761 7761 7761 7761
5096 6302 7109 7109 7109 7375 7404 7429 7433 7497 7568 7568 7568 7698 7698 7698 7698 7698 7698 7698 7698 7698 7698 7734 7761 7761 7761 7761 7761 7761 7761 7761 7761 7761 7761 7761 7761 7761 7761 7761

BPSO2 Results:
4525 5174 6226 6802 6802 6802 6802 6802 6802 6802 6802 6802 6802 6802 6802 6802 6802 6802 6802 6802 6802 6802 6802 6802 6802 6802 6802 6802 6802 6802 6802 6802 6802 6802 6802 6802 6802 6802 6802 6802
4651 5620 6243 6321 6321 6321 6321 6964 6964 6964 6964 6964 6964 6964 6964 6964 6964 6964 6964 6964 6964 6964 6964 6964 6964 6964 6964 6964 6964 6964 6964 6964 6964 6964 6964 6964 6964 6964 6964 6964
3728 5697 6459 6459 6792 6792 6792 6792 7189 7189 7189 7189 7189 7189 7189 7189 7189 7189 7189 7189 7189 7189 7189 7189 7189 7189 7189 7189 7189 7189 7189 7189 7189 7189 7189 7189 7189 7189 7189 7189
4578 5066 5533 5583 5583 5738 5738 6035 6035 6035 6035 6035 6035 6035 6035 6035 6356 6356 6356 6356 6356 6356 6356 6356 6356 6356 6356 6356 6356 6356 6356 6356 6356 6356 6356 6356 6356 6356 6356 6356
5446 6052 6052 6052 6053 6053 6110 6110 6110 6127 6127 6127 6127 6127 6127 6127 6127 6127 6127 6127 6127 6127 6127 6127 6127 6127 6127 6127 6127 6127 6127 6127 6127 6127 6127 6127 6127 6127 6127 6127
5330 6075 6400 6400 6400 6400 6400 6400 6400 6400 6400 6400 6400 6932 6932 6932 6932 6932 6932 6932 6932 6932 6932 6932 6932 6932 6932 6932 6932 6932 6932 6932 6932 6932 6932 6932 6932 6932 6932 6932
4356 5255 5393 5616 5970 5970 5970 5970 6598 6598 6598 6598 6598 6598 6660 6660 6660 6660 6660 6660 6660 6660 6660 6660 6660 6660 6660 6660 6660 6660 6660 6660 6660 6660 6660 6660 6660 6660 6660 6660
4677 4993 5579 5775 6001 6001 6001 6003 6008 6047 6267 6363 6363 6363 6363 6363 6363 6363 6363 6363 6363 6363 6363 6363 6363 6363 6363 6363 6363 6363 6363 6363 6363 6363 6363 6363 6363 6363 6363 6363
4577 5611 5998 5998 6602 6645 6645 6645 6725 6725 6786 6786 6786 6786 6786 6786 6786 6786 6786 6786 6786 6786 6786 6786 6786 6786 6786 6786 6786 6786 6786 6786 6786 6786 6786 6786 6786 6786 6786 6786
5847 6699 6699 6699 6699 6699 6699 6699 6699 6699 6699 6699 6699 6699 6699 6699 6699 6699 6699 6699 6699 6699 6699 6699 6699 6699 6699 6699 6699 6699 6699 6699 6699 6699 6699 6699 6699 6699 6699 6699
5692 5869 5869 5869 6094 6094 6360 6360 6360 6723 6863 6863 6863 6863 6863 6863 6863 6863 6863 6863 6863 6863 6863 6863 6863 6863 6863 6863 6863 6863 6863 6863 6863 6863 6863 6863 6863 6863 6863 6863
4823 5105 5806 5994 5994 6119 6484 6484 6484 6484 6484 6484 6484 6484 6484 6484 6484 6484 6484 6484 6484 6484 6484 6484 6484 6667 6667 6667 6667 6667 6667 6667 6667 6667 6667 6667 6667 6667 6667 6667
5983 6792 6792 6792 6792 6792 6792 6792 7020 7020 7020 7020 7020 7020 7020 7020 7020 7020 7020 7020 7020 7020 7020 7020 7020 7020 7020 7020 7020 7020 7020 7020 7020 7020 7020 7020 7020 7020 7020 7020
5295 5817 5922 5948 6389 6389 6629 6629 6629 6629 6629 6629 6629 6629 6629 6629 6629 6629 6629 6629 6629 6629 6629 6629 6629 6629 6629 6629 6629 6629 6629 6629 6629 6629 6629 6629 6629 6629 6629 6629
4129 4995 6320 6320 6320 6320 6320 6320 7123 7123 7123 7123 7123 7123 7123 7123 7123 7123 7123 7123 7123 7123 7123 7123 7123 7123 7123 7123 7123 7123 7123 7123 7123 7123 7123 7123 7123 7123 7123 7123
5219 5219 5651 5651 5789 6295 6295 6295 6295 6295 6295 6295 6295 6295 6295 6295 6295 6295 6295 6295 6295 6295 6295 6295 6295 6295 6295 6295 6295 6295 6295 6295 6295 6295 6295 6295 6295 6295 6295 6295
4250 4250 4779 6061 6712 6712 6763 6763 6763 6763 6763 6763 7087 7087 7087 7087 7087 7087 7087 7087 7087 7087 7087 7087 7087 7087 7087 7087 7087 7087 7087 7087 7087 7087 7087 7087 7087 7087 7087 7087
3991 5617 6107 6107 6355 6355 6355 6355 6355 6355 6355 6355 6355 6355 6355 6355 6355 6355 6355 6355 6355 6355 6355 6355 6355 6355 6355 6355 6355 6355 6355 6355 6355 6355 6355 6355 6355 6355 6355 6355
5430 5430 5906 6055 6115 6361 6361 6361 6361 6361 6361 6361 6361 6389 6389 6389 6389 6389 6389 6389 6389 6389 6389 6389 6389 6389 6389 6389 6389 6389 6389 6389 6389 6389 6389 6389 6389 6389 6389 6389
3757 5566 5705 6808 6808 6808 6808 6808 6808 6808 6808 6808 6808 6808 6808 6808 6808 6808 6808 6831 6831 6831 6831 6831 6831 6831 6831 6831 6831 6831 6831 6831 6831 6831 6831 6831 6831 6831 6831 6831
4490 4996 5610 6012 6012 6358 6358 6696 6696 6696 6696 6696 6696 6696 6696 6696 6696 6696 6696 6696 6696 6696 6696 6696 6696 6696 6696 6696 6696 6696 6696 6696 6696 6696 6696 6696 6696 6696 6696 6696
5143 5624 5624 5624 5624 5624 5624 5624 5624 5624 5624 5624 5624 5624 5624 5624 5624 5624 5624 5624 5624 5624 5624 5624 5624 5624 5624 5624 5624 5624 5624 5624 5624 5624 5624 5624 5624 5624 5624 5624
5066 5826 5826 5826 5963 6149 6633 6633 6633 6633 6633 6633 6633 6633 6633 6633 6633 6633 6633 6633 6633 6633 6633 6633 6633 6633 6633 6633 6633 6633 6633 6633 6633 6633 6633 6633 6633 6633 6633 6633
4350 5429 5704 6263 6868 6868 6868 6868 6868 6868 6868 6868 6868 6868 6868 6868 6868 6868 6868 6868 6868 6868 6868 6868 6868 7183 7183 7183 7183 7183 7183 7183 7183 7183 7183 7183 7183 7183 7183 7183
4849 5669 5669 6068 6068 6068 6068 6235 6235 6235 6235 6235 6235 6235 6235 6235 6235 6235 6235 6235 6235 6235 6235 6235 6235 6235 6235 6235 6235 6235 6235 6235 6235 6235 6235 6235 6235 6235 6235 6235
5360 5360 5966 6372 6372 6372 6372 6372 6372 6372 6372 6372 6372 6372 6372 6372 6699 6699 6699 6699 6699 6699 6699 6699 6699 6699 6699 6699 6699 6699 6699 6699 6699 6699 6699 6699 6699 6699 6699 6699
4481 6168 6327 6327 6327 6327 6327 6327 6327 6327 6327 6327 6327 6327 6327 6327 6327 6327 6327 6327 6327 6327 6327 6327 6327 6692 6692 6692 6692 6692 6692 6692 6692 6692 6692 6692 6692 6692 6692 6692
5183 6164 6164 6164 6164 6164 6230 6230 6230 6230 6257 6257 6257 6257 6257 6257 6257 6257 6257 6257 6257 6257 6257 6257 6257 6257 6257 6257 6257 6257 6257 6257 6257 6257 6257 6257 6257 6257 6257 6257
5200 5899 5920 5920 5920 5920 5920 5960 5960 5960 5960 5960 5960 5960 5960 5960 5981 5981 5981 5981 5981 5981 5981 5981 5981 5981 5981 5981 5981 5981 5981 6744 6744 6744 6744 6744 6744 6744 6744 6744
5284 6065 6065 6065 6226 6226 6231 6231 6231 6231 6231 6231 6231 6231 6231 6231 6231 6914 7106 7106 7106 7106 7106 7106 7106 7106 7106 7106 7106 7106 7106 7106 7106 7106 7106 7106 7106 7106 7106 7106

GA2 Results:
5774 6342 6398 7080 7090 7111 7165 7321 7364 7364 7398 7523 7523 7523 7557 7557 7571 7571 7652 7652 7652 7652 7679 7679 7713 7713 7713 7713 7713 7713 7713 7723 7723 7723 7723 7723 7723 7723 7723 7723
5179 5308 6703 6721 6976 6976 6976 7208 7208 7238 7238 7525 7581 7581 7616 7640 7640 7640 7640 7640 7640 7667 7700 7700 7700 7700 7700 7700 7700 7700 7700 7700 7700 7700 7700 7700 7700 7700 7700 7700
5073 6186 6219 6467 6472 7210 7210 7210 7441 7441 7441 7496 7567 7578 7578 7578 7601 7601 7609 7613 7714 7714 7761 7761 7761 7761 7761 7761 7761 7761 7761 7761 7761 7761 7761 7761 7761 7761 7761 7761
5669 6047 6128 6209 6229 6856 6989 7206 7275 7275 7348 7348 7348 7411 7411 7536 7567 7575 7584 7584 7584 7603 7609 7609 7609 7616 7616 7616 7616 7621 7621 7621 7621 7621 7621 7621 7621 7621 7621 7621
5410 6003 6471 7066 7210 7210 7210 7340 7340 7428 7428 7461 7461 7461 7474 7474 7576 7576 7576 7576 7576 7576 7646 7646 7646 7646 7646 7646 7672 7672 7690 7690 7690 7690 7690 7690 7690 7690 7690 7690
4866 5268 6661 6871 6871 6880 7058 7274 7343 7361 7361 7361 7361 7464 7471 7471 7471 7498 7498 7525 7537 7537 7563 7746 7746 7772 7772 7772 7772 7772 7772 7772 7772 7772 7772 7772 7772 7772 7772 7772
5853 5971 6395 6395 6646 6916 7007 7218 7293 7303 7401 7401 7401 7401 7489 7489 7489 7489 7489 7490 7497 7497 7515 7582 7582 7582 7582 7582 7582 7582 7582 7582 7582 7582 7582 7582 7582 7582 7582 7582
4919 5147 6009 6331 6370 6448 7232 7238 7411 7429 7506 7506 7506 7563 7576 7576 7582 7616 7616 7671 7671 7711 7711 7711 7761 7761 7761 7761 7761 7761 7761 7761 7761 7761 7761 7761 7761 7761 7761 7761
5340 5342 6039 6282 6282 6695 7211 7211 7211 7211 7211 7432 7432 7432 7432 7461 7516 7516 7516 7648 7654 7666 7666 7666 7666 7666 7666 7698 7708 7734 7734 7734 7761 7761 7761 7761 7761 7761 7761 7761
6288 6288 6841 6874 7038 7107 7107 7107 7107 7107 7107 7221 7296 7296 7338 7338 7338 7338 7342 7342 7366 7366 7398 7398 7398 7398 7413 7553 7576 7576 7576 7576 7576 7576 7576 7576 7576 7583 7583 7583
5621 6069 6909 6909 6909 6909 6909 6997 6997 7011 7327 7327 7327 7327 7327 7492 7512 7512 7569 7569 7569 7616 7616 7625 7625 7625 7640 7640 7640 7640 7640 7640 7640 7640 7640 7640 7640 7640 7640 7640
5453 6179 6295 6295 6363 6527 7062 7062 7062 7107 7136 7232 7232 7232 7232 7232 7581 7581 7581 7581 7589 7589 7589 7589 7589 7589 7589 7589 7589 7589 7589 7589 7589 7589 7589 7589 7589 7589 7589 7589
5124 5553 6368 6368 6368 6690 7133 7133 7133 7465 7465 7465 7497 7497 7497 7542 7542 7643 7662 7662 7662 7702 7702 7702 7702 7702 7702 7702 7702 7702 7702 7702 7702 7702 7702 7702 7702 7702 7705 7705
5645 5645 6616 6616 7134 7134 7134 7134 7253 7253 7256 7379 7379 7379 7631 7631 7631 7631 7631 7631 7658 7672 7672 7672 7672 7672 7690 7690 7690 7690 7690 7690 7690 7690 7690 7690 7690 7690 7690 7690
5444 5630 6250 6283 6283 6659 6882 6882 6882 6882 6882 6940 7292 7298 7298 7298 7298 7298 7390 7390 7485 7485 7485 7552 7552 7587 7587 7587 7587 7587 7587 7636 7636 7636 7641 7641 7641 7641 7641 7641
4647 5689 5963 6351 6351 6433 6720 6720 7179 7179 7306 7306 7306 7306 7406 7406 7406 7406 7429 7535 7535 7590 7596 7596 7596 7646 7690 7690 7690 7690 7690 7690 7690 7690 7690 7690 7690 7690 7690 7690
5507 5514 5817 5970 6712 7044 7044 7097 7185 7185 7185 7215 7557 7563 7563 7563 7563 7563 7563 7563 7563 7581 7581 7581 7581 7581 7581 7581 7581 7581 7581 7581 7581 7581 7581 7581 7581 7581 7581 7581
5195 5775 6091 6614 6766 6766 6766 7184 7253 7253 7253 7316 7337 7337 7366 7408 7408 7408 7408 7408 7408 7408 7408 7408 7408 7408 7408 7408 7408 7408 7408 7408 7413 7413 7413 7544 7632 7632 7632 7632
5010 5743 5856 5891 6513 6688 6688 6822 6892 7265 7398 7398 7398 7483 7483 7483 7483 7498 7512 7524 7562 7592 7596 7598 7598 7598 7598 7598 7598 7598 7598 7598 7598 7598 7598 7598 7598 7598 7598 7598
5410 5663 5815 6483 6546 6837 7034 7034 7034 7034 7034 7034 7252 7252 7252 7355 7355 7500 7500 7500 7500 7500 7555 7557 7621 7621 7621 7621 7621 7621 7621 7672 7690 7690 7690 7690 7690 7690 7690 7690
6285 6285 6285 6719 6719 6719 6809 6878 7184 7340 7441 7441 7441 7490 7490 7490 7490 7518 7518 7585 7618 7618 7618 7618 7671 7671 7671 7671 7728 7728 7728 7728 7728 7728 7728 7728 7728 7728 7728 7728
6378 6561 6985 7056 7103 7264 7264 7264 7264 7264 7264 7264 7454 7454 7454 7454 7526 7538 7623 7623 7623 7623 7658 7658 7658 7728 7728 7728 7728 7728 7728 7728 7728 7728 7728 7728 7728 7728 7728 7728
5753 6281 6281 6281 6435 7394 7394 7394 7394 7394 7394 7396 7396 7396 7396 7396 7396 7435 7435 7487 7493 7584 7625 7625 7625 7625 7625 7625 7625 7625 7625 7625 7625 7625 7625 7625 7625 7625 7625 7625
5590 6078 6194 6194 6293 6774 7204 7204 7204 7204 7204 7204 7204 7278 7302 7426 7426 7462 7462 7582 7582 7582 7582 7582 7582 7582 7582 7582 7582 7597 7597 7711 7711 7711 7711 7711 7711 7711 7711 7711
5801 6231 6364 6989 6989 6989 6989 7085 7168 7168 7168 7168 7168 7171 7226 7560 7560 7588 7588 7588 7621 7621 7621 7621 7621 7621 7621 7621 7621 7621 7621 7621 7621 7621 7621 7621 7621 7621 7621 7621
4976 5639 6397 6501 6501 6951 7278 7350 7350 7350 7350 7350 7429 7476 7476 7476 7487 7487 7487 7501 7501 7529 7529 7529 7529 7529 7563 7563 7563 7573 7573 7573 7573 7573 7573 7573 7573 7573 7573 7573
4601 5368 5368 5942 5942 7206 7206 7206 7206 7206 7217 7300 7306 7346 7346 7346 7447 7522 7522 7583 7583 7583 7596 7596 7596 7596 7596 7610 7610 7610 7610 7610 7610 7610 7610 7610 7610 7610 7610 7610
5567 6034 6142 6213 6213 6439 6650 6661 6843 6998 7115 7308 7427 7427 7476 7476 7476 7634 7634 7634 7634 7711 7711 7711 7711 7711 7711 7711 7711 7711 7711 7711 7711 7711 7711 7711 7711 7711 7711 7711
5574 5785 6032 6054 6256 6778 6778 6818 6818 6852 6852 7331 7331 7331 7419 7419 7508 7508 7508 7513 7519 7519 7545 7547 7547 7588 7588 7588 7588 7622 7622 7687 7687 7687 7687 7687 7687 7687 7687 7687
5607 6373 6645 6645 6769 7192 7330 7425 7425 7531 7555 7555 7562 7562 7612 7680 7680 7680 7713 7741 7741 7741 7741 7741 7741 7741 7741 7741 7741 7741 7741 7741 7741 7741 7741 7741 7741 7741 7741 7741

BPSO3 Results:
4293 4293 5864 5916 5916 5916 5916 5916 5916 5916 5916 5916 6228 6228 6228 6228 6228 6228 6228 6228 6228 6228 6228 6228 6228 6228 6228 6228 6228 6228 6228 6228 6228 6228 6228 6228 6228 6228 6228 6228
3065 4871 4916 5710 5710 5710 5710 5710 5710 5875 5875 5875 5875 5875 5875 5875 5875 5875 5875 5875 5875 5875 5875 5875 5875 5875 5875 5875 5875 5875 5875 5875 5875 5875 5965 5965 5965 5965 5965 5965
4219 4387 4707 4707 4707 5349 5349 5634 5634 5634 5634 5634 5634 5634 5634 5634 5634 5634 5634 5634 5634 5634 5634 5634 5634 5634 5634 5634 5634 5634 5634 5634 5634 5634 5634 5634 5634 5634 5634 5634
3463 4119 5027 5783 5783 5783 5783 5783 5900 5900 5900 5900 5900 5900 5900 5900 5900 5900 5900 5900 5900 5900 5900 5900 5900 5900 5900 5900 5900 5900 5900 5900 5900 5900 5900 5900 5900 5900 5900 5900
4503 4537 4537 5331 5331 5429 5725 5725 5725 5725 5725 5725 5725 5725 5725 5725 5725 5725 5725 5725 5725 5725 5725 5725 5725 5725 5725 5725 5725 5725 5725 5725 5725 5725 5725 5725 5725 5725 5725 5725
4073 4694 5082 5422 5422 5598 5598 5598 5598 5599 5620 5620 5620 5809 5809 5855 5855 5855 5855 5855 5855 5855 5855 5855 5855 5855 5855 5855 5855 5855 5855 5855 5855 5855 5855 5855 5855 5855 5855 5855
5108 5108 5810 6330 6330 6330 6330 6355 6355 6355 6355 6355 6355 6355 6355 6355 6355 6355 6355 6355 6355 6355 6355 6355 6355 6355 6355 6355 6355 6355 6355 6355 6355 6355 6355 6355 6355 6355 6355 6355
4863 4945 4945 5605 5605 5868 5868 5868 6498 6498 6498 6498 6498 6498 6498 6498 6498 6498 6498 6498 6498 6498 6498 6498 6498 6498 6498 6498 6498 6498 6498 6498 6498 6498 6498 6498 6498 6498 6498 6498
4910 4910 4956 4956 4956 5192 5468 5497 5497 5745 5745 5745 5745 6278 6278 6278 6278 6278 6278 6278 6278 6278 6278 6278 6278 6278 6278 6278 6278 6278 6278 6278 6278 6278 6278 6278 6278 6278 6278 6278
3451 4875 5569 5569 5569 5569 5569 5781 5781 5781 5887 5887 5896 5896 6095 6095 6095 6095 6095 6095 6095 6095 6095 6124 6124 6124 6124 6124 6124 6124 6124 6124 6124 6124 6124 6124 6124 6124 6124 6124
3495 5053 5625 5625 5625 5625 5625 6597 6597 6597 6597 6597 6597 6597 6745 6745 6745 6745 6745 6745 6745 6745 6745 6745 6745 6745 6745 6745 6745 6745 6745 6745 6745 6745 6745 6745 6745 6745 6745 6745
3335 5189 5319 5319 5644 5644 6089 6089 6089 6089 6180 6180 6353 6353 6353 6353 6353 6353 6353 6353 6353 6353 6353 6353 6353 6353 6353 6353 6353 6353 6353 6353 6353 6353 6353 6353 6353 6353 6353 6353
1427 4017 4730 5636 5748 6004 6004 6004 6004 6004 6004 6004 6004 6004 6004 6004 6004 6004 6004 6004 6004 6004 6004 6004 6077 6077 6077 6077 6077 6077 6077 6077 6077 6077 6077 6077 6077 6077 6077 6077
2879 4141 4504 4792 4792 5210 5287 5361 5384 5634 5634 5634 5634 5634 5634 5634 5634 5634 5634 5634 5634 5634 5634 5634 5634 5634 5634 5634 6315 6315 6315 6315 6315 6315 6315 6315 6315 6315 6315 6315
2671 4494 5132 5132 5262 5262 5655 5655 5731 6079 6079 6079 6372 6372 6372 6372 6372 6372 6372 6372 6372 6372 6372 6372 6372 6372 6372 6372 6372 6372 6372 6372 6372 6372 6372 6372 6372 6372 6372 6372
3896 4856 5099 5408 5408 5429 5846 5846 5846 6168 6168 6168 6168 6168 6168 6168 6168 6168 6168 6168 6168 6168 6168 6168 6168 6168 6316 6316 6316 6316 6316 6316 6316 6316 6316 6316 6316 6316 6316 6316
4754 5117 5959 5959 5959 5959 5959 6244 6244 6244 6244 6244 6244 6244 6244 6244 6244 6244 6244 6244 6244 6244 6244 6244 6244 6244 6244 6244 6244 6244 6244 6244 6244 6244 6244 6244 6244 6244 6244 6244
3336 4268 4978 5561 5561 6412 6412 6412 6412 6412 6412 6412 6412 6412 6412 6412 6412 6412 6412 6412 6412 6412 6412 6412 6412 6412 6412 6412 6412 6412 6412 6412 6412 6412 6412 6412 6412 6412 6412 6412
4032 4814 5455 5455 5455 5867 5867 5867 5867 5867 5867 5958 5958 5958 5958 5958 5958 5958 5958 5958 5958 5958 5958 5958 5958 5958 5958 5958 5958 6081 6081 6081 6081 6081 6081 6081 6081 6081 6081 6081
4228 5080 5080 5858 5858 5858 5858 6581 6626 6626 6626 6626 6626 6626 6626 6626 6626 6626 6626 6626 6626 6626 6626 6626 6626 6626 6626 6626 6626 6626 6626 6626 6626 6626 6626 6626 6626 6626 6626 6626
2915 3446 4893 5431 5431 5711 5834 5834 5834 5834 6223 6223 6223 6223 6223 6223 6223 6223 6223 6223 6223 6223 6223 6223 6223 6223 6223 6223 6223 6223 6223 6223 6223 6223 6223 6223 6223 6223 6223 6223
4658 4658 4731 4731 5646 5646 6183 6183 6701 6701 6701 6701 6701 6701 6701 6701 6701 6701 6701 6701 6701 6701 6701 6701 6701 6701 6701 6701 6701 6701 6701 6701 6701 6701 6701 6701 6701 6701 6701 6701
3680 4355 4917 5620 5620 5685 6389 6389 6389 6389 6389 6389 6389 6389 6389 6389 6389 6389 6389 6389 6389 6389 6389 6389 6389 6389 6389 6389 6389 6389 6389 6389 6389 6389 6389 6389 6389 6389 6389 6389
4256 4301 4321 5602 5602 5715 5715 5715 5726 5726 5726 5726 5726 5726 5726 5726 5726 5726 5726 5726 5894 5894 5894 5894 5894 5894 5894 5894 5894 5894 5894 5894 5894 5894 5894 5894 5894 5894 5894 5894
3386 4168 5935 6041 6041 6041 6041 6041 6041 6041 6041 6041 6062 6062 6062 6062 6062 6062 6062 6062 6062 6062 6062 6062 6062 6467 6467 6467 6467 6467 6467 6467 6467 6467 6467 6467 6467 6467 6467 6467
1856 5191 5191 5230 5471 5471 5849 5849 5849 5849 5849 5849 6459 6459 6459 6459 6459 6459 6459 6459 6459 6459 6459 6459 6459 6459 6459 6459 6459 6459 6459 6459 6459 6459 6459 6459 6459 6459 6459 6459
2247 4965 5826 5826 5826 5826 5826 5826 5826 5826 5826 6199 6199 6199 6199 6199 6199 6199 6199 6199 6199 6199 6199 6199 6199 6199 6199 6199 6199 6199 6199 6199 6199 6199 6199 6199 6199 6199 6199 6199
3044 4880 5402 5402 5402 5402 5402 5402 5402 5402 5402 5402 5402 5402 5402 5402 5402 5402 5461 5461 5461 5461 5461 5461 5461 5461 5461 5461 5461 5461 5461 5461 5461 5461 5461 5461 5461 5461 5461 5461
3530 4893 5247 5440 5594 5594 5594 5594 5594 5594 5683 5777 5777 5777 5785 5785 5785 5785 5785 5785 6223 6223 6223 6223 6223 6223 6223 6223 6924 6924 6924 6924 6924 6924 6924 6924 6924 6924 6924 6924
3245 4497 4497 5614 5614 5925 5925 5925 5925 5925 5925 5925 5925 5925 5925 5925 5925 5925 5963 5963 5963 5963 5963 5963 5963 5963 5963 5963 5963 5963 5963 5963 5963 5963 5963 5963 5963 5963 5963 5963

GA3 Results:
4923 5347 6443 6820 7077 7433 7433 7433 7433 7607 7607 7607 7607 7607 7607 7607 7607 7607 7607 7607 7607 7607 7649 7649 7649 7649 7649 7698 7698 7698 7698 7698 7698 7698 7698 7698 7698 7698 7698 7698
3989 5727 6390 7019 7050 7108 7172 7172 7172 7266 7310 7310 7310 7310 7310 7494 7494 7494 7494 7494 7494 7494 7494 7494 7494 7494 7494 7569 7569 7569 7569 7569 7569 7569 7596 7596 7596 7596 7625 7625
4966 5894 6748 7321 7321 7321 7321 7321 7498 7498 7498 7498 7498 7498 7498 7520 7520 7520 7520 7520 7520 7520 7520 7520 7541 7541 7541 7541 7551 7551 7551 7593 7593 7600 7600 7600 7600 7600 7600 7644
3682 5997 6009 6921 6950 6988 6994 6994 6994 6994 7172 7172 7172 7235 7464 7464 7464 7464 7464 7464 7464 7464 7464 7464 7511 7565 7566 7566 7586 7648 7648 7648 7648 7648 7648 7648 7648 7648 7648 7648
3676 5504 6560 6560 6885 7191 7223 7334 7334 7334 7345 7368 7449 7482 7482 7482 7505 7505 7518 7518 7530 7530 7621 7621 7621 7621 7621 7628 7628 7628 7628 7628 7628 7628 7693 7693 7693 7693 7693 7693
4334 5624 6121 6625 6919 7231 7231 7231 7231 7344 7502 7502 7502 7502 7502 7502 7502 7502 7502 7502 7502 7502 7502 7502 7502 7502 7528 7528 7570 7570 7570 7570 7595 7595 7595 7660 7660 7699 7699 7699
4422 5172 6091 6510 6510 6980 7208 7208 7208 7208 7381 7428 7574 7574 7574 7574 7574 7574 7574 7574 7574 7574 7574 7574 7670 7670 7670 7670 7670 7670 7670 7670 7670 7670 7670 7670 7670 7670 7670 7670
4156 4892 5679 6742 7044 7274 7274 7274 7473 7473 7473 7473 7473 7478 7597 7597 7597 7597 7597 7597 7597 7597 7597 7607 7607 7607 7607 7679 7679 7679 7679 7679 7679 7679 7679 7679 7679 7679 7679 7679
5522 5914 6285 6700 6838 6838 7303 7303 7303 7303 7303 7303 7384 7572 7572 7572 7572 7572 7572 7572 7572 7572 7572 7572 7572 7572 7572 7572 7583 7583 7583 7583 7583 7619 7619 7619 7619 7619 7619 7619
4117 5196 6661 6983 7375 7375 7375 7375 7375 7415 7415 7490 7490 7490 7490 7490 7490 7490 7492 7492 7492 7609 7609 7609 7609 7609 7609 7609 7609 7609 7609 7609 7647 7647 7647 7647 7696 7696 7696 7696
5348 5482 5996 6435 7026 7050 7132 7335 7337 7338 7436 7436 7436 7509 7619 7619 7619 7619 7619 7619 7619 7672 7672 7672 7692 7692 7692 7692 7692 7692 7692 7692 7692 7714 7714 7714 7714 7714 7714 7714
4881 5836 6525 6987 6987 7082 7268 7268 7268 7268 7297 7297 7459 7459 7459 7459 7491 7491 7491 7513 7513 7513 7514 7524 7550 7609 7644 7644 7644 7689 7689 7689 7689 7689 7689 7689 7721 7721 7721 7721
4557 4806 6310 6571 6896 7090 7090 7334 7334 7334 7334 7334 7334 7335 7500 7500 7500 7500 7500 7500 7500 7500 7529 7529 7529 7529 7529 7529 7573 7573 7573 7573 7573 7573 7573 7573 7573 7573 7603 7603
3827 6102 6918 6918 7121 7121 7173 7209 7279 7279 7327 7327 7496 7496 7496 7496 7496 7496 7496 7496 7496 7496 7496 7496 7496 7496 7496 7496 7581 7581 7581 7581 7581 7581 7581 7581 7581 7581 7581 7581
3737 6177 6513 6935 7199 7288 7325 7352 7352 7352 7352 7452 7452 7452 7452 7452 7452 7569 7569 7569 7569 7569 7569 7569 7569 7569 7569 7585 7585 7585 7585 7585 7585 7585 7585 7585 7585 7596 7596 7660
3942 5727 6476 6921 6931 7060 7060 7228 7268 7291 7410 7410 7410 7434 7509 7509 7509 7509 7509 7509 7509 7509 7541 7541 7541 7541 7550 7550 7653 7653 7653 7653 7653 7653 7653 7653 7653 7653 7653 7653
3478 5930 6349 6349 6824 6911 7107 7157 7404 7404 7404 7404 7404 7404 7404 7404 7404 7439 7439 7529 7529 7529 7529 7529 7529 7529 7532 7532 7532 7532 7532 7572 7572 7572 7622 7622 7622 7622 7622 7622
3822 5448 6464 6640 7241 7241 7241 7241 7241 7377 7377 7390 7390 7390 7390 7401 7458 7458 7526 7526 7526 7526 7526 7526 7526 7526 7526 7526 7526 7533 7533 7707 7707 7707 7707 7707 7707 7707 7707 7707
3496 5280 6408 7282 7348 7348 7448 7581 7581 7581 7581 7581 7581 7641 7641 7641 7641 7641 7641 7641 7641 7641 7641 7641 7641 7641 7641 7641 7691 7691 7691 7691 7691 7691 7691 7691 7691 7691 7691 7691
3788 6139 6565 6981 7154 7190 7308 7308 7452 7452 7452 7452 7452 7452 7452 7452 7467 7467 7467 7467 7467 7467 7494 7513 7513 7513 7513 7513 7513 7513 7513 7513 7554 7554 7554 7554 7567 7567 7567 7567
3936 5812 6597 6597 6952 7332 7332 7363 7363 7363 7363 7398 7409 7441 7441 7497 7497 7497 7497 7497 7497 7515 7515 7515 7515 7515 7529 7529 7529 7529 7542 7542 7542 7558 7641 7641 7641 7641 7641 7649
4644 6007 6097 6707 6867 6991 7180 7384 7384 7384 7384 7388 7488 7550 7550 7550 7550 7628 7628 7628 7628 7628 7628 7642 7642 7642 7642 7642 7642 7642 7642 7642 7642 7642 7642 7642 7659 7659 7659 7659
4256 5935 6579 6755 7008 7449 7449 7449 7449 7449 7458 7458 7514 7514 7540 7602 7602 7602 7602 7602 7602 7608 7608 7657 7657 7657 7657 7657 7657 7657 7657 7657 7657 7657 7657 7657 7657 7657 7664 7694
3632 5317 6299 6756 7122 7260 7441 7441 7441 7441 7442 7442 7442 7442 7442 7442 7491 7491 7491 7491 7491 7491 7491 7500 7500 7581 7581 7588 7588 7588 7588 7588 7588 7588 7588 7588 7588 7588 7588 7588
4328 6498 6867 6867 7247 7247 7247 7247 7320 7320 7320 7320 7320 7320 7397 7407 7407 7407 7407 7407 7407 7407 7421 7470 7470 7470 7489 7492 7513 7595 7623 7623 7623 7631 7631 7631 7631 7631 7631 7633
4827 5544 6298 6919 7292 7436 7436 7496 7496 7540 7540 7540 7540 7656 7656 7656 7656 7656 7656 7656 7656 7694 7694 7694 7694 7706 7706 7706 7706 7706 7706 7706 7706 7706 7706 7706 7706 7706 7706 7706
3902 5842 6370 6770 6828 6928 7141 7300 7304 7304 7458 7544 7544 7544 7544 7544 7544 7544 7610 7610 7610 7610 7610 7610 7610 7610 7610 7610 7610 7610 7610 7616 7663 7667 7667 7667 7667 7667 7667 7667
4142 5836 5958 6479 6778 7003 7003 7290 7336 7343 7343 7351 7381 7383 7383 7383 7464 7464 7562 7562 7562 7562 7562 7562 7562 7562 7562 7601 7601 7601 7601 7601 7610 7610 7610 7610 7610 7610 7610 7610
3715 5881 6604 7305 7305 7439 7439 7439 7447 7482 7482 7482 7482 7537 7537 7543 7543 7543 7543 7543 7543 7543 7543 7543 7543 7543 7563 7563 7563 7563 7563 7563 7563 7563 7563 7563 7563 7563 7563 7563
4095 5078 5680 6622 6870 6916 7123 7434 7475 7475 7475 7475 7475 7475 7475 7475 7475 7475 7475 7481 7481 7486 7526 7526 7526 7526 7526 7526 7526 7526 7526 7549 7552 7577 7577 7577 7592 7645 7645 7645

